letting n =  10
letting blocks =  [[1, 3], [1, 5], [2, 7], [3, 2], [3, 5], [3, 6], [4, 1], [4, 8], [5, 3], [5, 6], [6, 5], [6, 6], [7, 1], [7, 2], [7, 4], [8, 6], [8, 8], [8, 10], [9, 3], [9, 4], [9, 5], [10, 2], [10, 5], [10, 10]]
